n_res = 4;
rcap = [29, 37, 107, 99];
rtype = [1, 1, 2, 2];
n_tasks = 16;
modes = [ {1, 2, 3}, {4, 5, 6}, {7, 8, 9}, {10, 11, 12}, {13, 14, 15}, {16, 17, 18}, {19, 20, 21}, {22, 23, 24}, {25, 26, 27}, {28, 29, 30}, {31, 32, 33}, {34, 35, 36}, {37, 38, 39}, {40, 41, 42}, {43, 44, 45}, {46, 47, 48} ];
succ = [ {5, 7, 9}, {4, 14, 16}, {6, 9, 12}, {12}, {6, 10, 12}, {8, 11, 13}, {8, 13}, {14, 16}, {11}, {11, 16}, {14, 15}, {13}, {15}, {}, {}, {} ];
n_opt = 48;
dur = [4, 5, 8, 4, 5, 10, 7, 9, 10, 1, 2, 10, 2, 9, 10, 1, 7, 10, 4, 5, 8, 2, 5, 6, 4, 10, 10, 7, 7, 9, 1, 6, 9, 3, 5, 8, 1, 8, 9, 3, 9, 9, 2, 7, 7, 6, 9, 10];
rreq = [|  9,  8,  8,  9,  7,  6,  8,  5,  4,  6,  3,  1,  7,  7,  7, 10,  8,  6,  6,  6,  5,  7,  6,  6,  4,  4,  4,  3,  3,  2,  8,  8,  6,  6,  5,  5,  5,  4,  3,  8,  6,  6,  3,  3,  2,  4,  3,  3
        |  9,  9,  8,  5,  5,  4,  7,  3,  1, 10,  9,  6,  8,  5,  2,  4,  3,  3, 10,  7,  7,  6,  3,  3,  5,  5,  4,  8,  7,  4,  8,  7,  6, 10, 10, 10, 10,  9,  8,  5,  4,  5,  6,  5,  5,  6,  5,  5
        |  3,  3,  2,  7,  7,  4,  9,  6,  3,  6,  4,  3,  9,  7,  7, 10,  9,  8,  7,  6,  5,  7,  6,  5,  9,  6,  5,  7,  9,  4,  9,  9,  8,  1,  1,  1,  8,  5,  4,  9,  8,  8,  7,  2,  2,  8,  7,  3
        |  7,  4,  3, 10,  8,  8,  5,  3,  2,  5,  5,  4,  5,  4,  3,  9,  8,  7,  6,  5,  1,  4,  3,  3, 10,  8,  9,  6,  6,  5,  9,  8,  8,  8,  5,  4,  3,  3,  3,  6,  4,  2, 10,  9, 10,  4,  4,  3 |];
